c preprocessed version of munin4-wpp, 23 vertices, 66 edges
p td 23 66
0 1
0 6
0 8
7 0
0 9
10 0
13 0
16 0
18 0
1 2
3 1
7 1
9 1
3 2
17 2
4 3
5 3
11 3
4 5
6 4
8 4
11 4
12 4
14 4
19 4
6 5
8 5
11 5
14 5
19 5
7 6
7 8
7 9
16 7
18 7
9 8
11 8
10 9
13 9
16 9
18 9
10 11
12 11
14 11
19 11
13 12
14 15
14 16
16 15
17 15
18 17
19 17
18 19
20 21
20 10
20 11
20 12
20 13
20 15
21 22
21 0
21 9
22 20
22 2
22 15
22 17
